0 0 0 0
0 1 0 0
0 2 0 0
0 3 0 0
0 4 0 3
0 5 0 1
0 6 1 3
0 7 0 4
0 8 0 5
0 9 0 6
0 10 2 4
0 11 0 1
0 12 0 1
0 13 0 5
0 14 0 5
0 15 0 10
0 16 0 2
0 17 2 5
0 18 0 4
0 19 0 16
0 20 0 8
0 21 0 5
0 22 0 9
0 23 0 16
0 24 0 8
0 25 0 17
0 26 0 20
0 27 0 13
0 28 0 15
0 29 0 22
0 30 0 11
0 31 0 23
